  7	53
 16
  0	 11	 19	 46	 64	 72	 99	  4	  8	 49	 57	 61	 52	105	102	107	
 12
  0	 29	 36	 14	  6	 89	 59	 67	 82	 15	 68	107	
 22
  0	 47	100	 25	 35	  3	 78	 26	 88	 79	 20	 56	  2	 55	 42	 39	 73	 27	 95	 80	 92	107	
 14
  0	 53	 13	 10	 41	106	 66	  7	 32	 63	 94	 60	 85	107	
 18
  0	 38	 18	 91	  5	 31	 51	 84	104	 58	 71	 50	  9	103	 34	 62	 87	107	
 22
  0	 45	 24	 43	 22	 96	 98	 77	 75	 48	 21	 37	 74	 17	101	 40	 90	 30	 93	 83	 70	107	
 16
  0	 23	 28	 81	 16	 69	 76	 33	 12	 86	  1	 65	 54	 44	 97	107	
